
Gurobi 11.0.3 (linux64) logging started Sun Jun  1 03:52:26 2025

Set parameter LogFile to value "/home/yihong/Coding/SFLA+ED/PD_results_bigM100000_thread4/case24_ieee_rts_theta0.13_epsilon0.03_gurobi_seed70000_num_gen13_N_WDR80_load_scaling_factor1_CVAR_T16.txt"
Set parameter TimeLimit to value 3600
Gurobi Optimizer version 11.0.3 build v11.0.3rc0 (linux64 - "Ubuntu 20.04.6 LTS")

CPU model: AMD EPYC 7532 32-Core Processor, instruction set [SSE2|AVX|AVX2]
Thread count: 64 physical cores, 128 logical processors, using up to 4 threads

Optimize a model with 163648 rows, 497 columns and 5751232 nonzeros
Model fingerprint: 0x3ebddd57
Model has 208 quadratic objective terms
Coefficient statistics:
  Matrix range     [1e-05, 7e+01]
  Objective range  [2e+01, 5e+01]
  QObjective range [4e-03, 2e-02]
  Bounds range     [0e+00, 0e+00]
  RHS range        [2e-02, 9e+02]
Presolve removed 57263 rows and 0 columns
Presolve time: 0.98s
Presolved: 106385 rows, 497 columns, 2259153 nonzeros
Presolved model has 208 quadratic objective terms
Ordering time: 0.18s

Barrier statistics:
 Dense cols : 497
 Free vars  : 208
 AA' NZ     : 2.259e+06
 Factor NZ  : 3.160e+06 (roughly 70 MB of memory)
 Factor Ops : 1.322e+08 (less than 1 second per iteration)
 Threads    : 4

                  Objective                Residual
Iter       Primal          Dual         Primal    Dual     Compl     Time
   0   1.17979564e+08 -5.95223728e+07  1.94e+04 8.63e+02  9.77e+05     2s
   1   5.00329153e+07 -2.24321796e+08  1.01e+04 5.97e+02  5.38e+05     2s
   2   3.26576994e+07 -1.47640577e+10  7.50e+03 4.51e+02  9.54e+05     2s
   3   2.84131319e+06 -1.06260160e+10  6.42e+02 1.07e+02  1.79e+05     2s
   4   7.62341403e+05 -4.80623085e+09  8.30e+01 1.95e+01  5.75e+04     2s
   5   5.27073248e+05 -2.77929837e+09  3.46e+01 8.25e+00  3.11e+04     2s
   6   4.38950195e+05 -1.78694368e+09  1.64e+01 3.97e+00  1.86e+04     2s
   7   4.19295776e+05 -1.47963885e+09  1.24e+01 3.00e+00  1.51e+04     2s
   8   4.08408343e+05 -1.23131571e+09  1.01e+01 2.45e+00  1.24e+04     2s
   9   3.78221554e+05 -7.25906197e+08  3.86e+00 9.14e-01  7.03e+03     2s
  10   3.59533246e+05 -3.42127163e+06  7.24e-03 1.97e-02  3.55e+01     2s
  11   3.55842363e+05 -3.59477798e+05  1.30e-03 1.00e-02  6.70e+00     2s
  12   3.44070604e+05  1.59151077e+05  1.90e-04 1.46e-03  1.73e+00     2s
  13   3.32487965e+05  2.27858000e+05  8.99e-05 6.85e-04  9.80e-01     2s
  14   3.23367971e+05  2.44217420e+05  5.84e-05 4.57e-04  7.41e-01     2s
  15   3.13423940e+05  2.64320694e+05  2.59e-05 2.03e-04  4.60e-01     2s
  16   3.11880630e+05  2.67911543e+05  2.14e-05 1.68e-04  4.12e-01     3s
  17   3.08756844e+05  2.76782737e+05  1.27e-05 1.01e-04  2.99e-01     3s
  18   3.07727682e+05  2.82738126e+05  8.31e-06 6.59e-05  2.34e-01     3s
  19   3.06388822e+05  2.90260238e+05  5.55e-07 1.43e-05  1.51e-01     3s
  20   3.05336513e+05  2.97799173e+05  1.95e-08 4.21e-07  7.05e-02     3s
  21   3.05164384e+05  2.99171606e+05  1.31e-08 2.83e-07  5.61e-02     3s
  22   3.04970263e+05  3.00672031e+05  8.48e-09 1.83e-07  4.02e-02     3s
  23   3.04880550e+05  3.01347038e+05  6.95e-09 1.50e-07  3.31e-02     3s
  24   3.04829046e+05  3.01722863e+05  5.60e-09 1.21e-07  2.91e-02     3s
  25   3.04818900e+05  3.01806220e+05  5.30e-09 1.15e-07  2.82e-02     4s
  26   3.04708662e+05  3.02645248e+05  3.06e-09 6.62e-08  1.93e-02     4s
  27   3.04622027e+05  3.03346609e+05  2.84e-14 1.53e-08  1.19e-02     4s
  28   3.04509320e+05  3.04174891e+05  1.42e-14 2.40e-09  3.13e-03     4s
  29   3.04490487e+05  3.04324733e+05  1.42e-14 7.69e-10  1.55e-03     4s
  30   3.04488806e+05  3.04334793e+05  2.84e-14 6.66e-10  1.44e-03     4s
  31   3.04472544e+05  3.04456865e+05  2.84e-14 9.04e-11  1.47e-04     4s
  32   3.04470636e+05  3.04470487e+05  1.42e-14 5.35e-10  1.39e-06     4s
  33   3.04470615e+05  3.04470615e+05  2.84e-14 2.90e-10  1.58e-09     5s

Barrier solved model in 33 iterations and 4.50 seconds (6.08 work units)
Optimal objective 3.04470615e+05

